6 8
2 2 1 20 2 20 2 7 36 8 36
2 2 3 20 4 20 2 7 36 8 36
2 2 1 20 2 20 2 5 40 6 40
3 2 3 20 4 20 2 5 30 6 30 2 7 24 8 24
3 2 1 20 2 20 2 3 30 4 30 2 7 24 8 24
3 2 1 20 2 20 2 3 30 4 30 2 5 24 6 24